sat
(
  (define-fun J () String
    "")
  (define-fun N () String
    "babbaa")
  (define-fun M () String
    "")
  (define-fun E () String
    "")
  (define-fun L () String
    "")
  (define-fun H () String
    "b")
)
